model_primal_hand.mps
NAME orman_tahsis
OBJSENSE MAX
ROWS
 N  OBJ
 E  c0      
 E  c1      
 E  c2      
 E  c3      
 E  c4      
 E  c5      
 E  c6      
 G  c7      
 G  c8      
 G  c9      
COLUMNS
    x_ij[1,1]  OBJ       503
    x_ij[1,1]  c0        1
    x_ij[1,1]  c7        310
    x_ij[1,1]  c8        0.01
    x_ij[1,1]  c9        5.0761421319796954e-02
    x_ij[1,2]  OBJ       140
    x_ij[1,2]  c0        1
    x_ij[1,2]  c7        50
    x_ij[1,2]  c8        0.04
    x_ij[1,2]  c9        1.0152284263959391e-01
    x_ij[1,3]  OBJ       203
    x_ij[1,3]  c0        1
    x_ij[1,3]  c9        1.2055837563451775e-01
    x_ij[2,1]  OBJ       675
    x_ij[2,1]  c1        1
    x_ij[2,1]  c7        198
    x_ij[2,1]  c8        0.03
    x_ij[2,1]  c9        6.9796954314720813e-02
    x_ij[2,2]  OBJ       100
    x_ij[2,2]  c1        1
    x_ij[2,2]  c7        46
    x_ij[2,2]  c8        0.06
    x_ij[2,2]  c9        7.6142131979695424e-02
    x_ij[2,3]  OBJ       45
    x_ij[2,3]  c1        1
    x_ij[2,3]  c9        8.2487309644670048e-02
    x_ij[3,1]  OBJ       630
    x_ij[3,1]  c2        1
    x_ij[3,1]  c7        210
    x_ij[3,1]  c8        0.04
    x_ij[3,1]  c9        5.7106598984771571e-02
    x_ij[3,2]  OBJ       105
    x_ij[3,2]  c2        1
    x_ij[3,2]  c7        57
    x_ij[3,2]  c8        0.07
    x_ij[3,2]  c9        6.9796954314720813e-02
    x_ij[3,3]  OBJ       40
    x_ij[3,3]  c2        1
    x_ij[3,3]  c9        7.6142131979695424e-02
    x_ij[4,1]  OBJ       330
    x_ij[4,1]  c3        1
    x_ij[4,1]  c7        112
    x_ij[4,1]  c8        0.01
    x_ij[4,1]  c9        3.8071065989847712e-02
    x_ij[4,2]  OBJ       40
    x_ij[4,2]  c3        1
    x_ij[4,2]  c7        30
    x_ij[4,2]  c8        0.02
    x_ij[4,2]  c9        4.4416243654822329e-02
    x_ij[4,3]  OBJ       295
    x_ij[4,3]  c3        1
    x_ij[4,3]  c9        1.1421319796954314e-01
    x_ij[5,1]  OBJ       105
    x_ij[5,1]  c4        1
    x_ij[5,1]  c7        40
    x_ij[5,1]  c8        0.05
    x_ij[5,1]  c9        7.6142131979695424e-02
    x_ij[5,2]  OBJ       460
    x_ij[5,2]  c4        1
    x_ij[5,2]  c7        32
    x_ij[5,2]  c8        0.08
    x_ij[5,2]  c9        7.6142131979695424e-02
    x_ij[5,3]  OBJ       120
    x_ij[5,3]  c4        1
    x_ij[5,3]  c9        8.8832487309644659e-02
    x_ij[6,1]  OBJ       490
    x_ij[6,1]  c5        1
    x_ij[6,1]  c7        105
    x_ij[6,1]  c8        0.02
    x_ij[6,1]  c9        4.4416243654822329e-02
    x_ij[6,2]  OBJ       55
    x_ij[6,2]  c5        1
    x_ij[6,2]  c7        25
    x_ij[6,2]  c8        0.03
    x_ij[6,2]  c9        6.3451776649746189e-02
    x_ij[6,3]  OBJ       180
    x_ij[6,3]  c5        1
    x_ij[6,3]  c9        9.5177664974619283e-02
    x_ij[7,1]  OBJ       705
    x_ij[7,1]  c6        1
    x_ij[7,1]  c7        213
    x_ij[7,1]  c8        0.02
    x_ij[7,1]  c9        5.0761421319796954e-02
    x_ij[7,2]  OBJ       60
    x_ij[7,2]  c6        1
    x_ij[7,2]  c7        40
    x_ij[7,2]  c8        0.04
    x_ij[7,2]  c9        5.7106598984771571e-02
    x_ij[7,3]  OBJ       400
    x_ij[7,3]  c6        1
    x_ij[7,3]  c9        1.2055837563451775e-01
RHS
    RHS1      c0        75
    RHS1      c1        90
    RHS1      c2        140
    RHS1      c3        60
    RHS1      c4        212
    RHS1      c5        98
    RHS1      c6        113
    RHS1      c7        40000
    RHS1      c8        5
    RHS1      c9        70
BOUNDS
ENDATA
